750
150 150
1 120 397
2 120 797
3 120 594
4 120 734
5 120 297
6 119 745
7 119 917
8 119 141
9 119 992
10 119 251
11 119 796
12 119 983
13 119 828
14 119 658
15 119 822
16 119 702
17 119 473
18 118 992
19 118 581
20 118 814
21 118 783
22 118 453
23 118 99
24 118 321
25 117 570
26 117 741
27 117 946
28 117 831
29 117 699
30 116 40
31 116 309
32 116 316
33 116 745
34 116 951
35 116 385
36 116 726
37 116 629
38 116 885
39 116 433
40 116 185
41 116 251
42 115 184
43 115 784
44 115 790
45 114 126
46 114 709
47 114 755
48 114 922
49 114 218
50 114 527
51 114 584
52 114 780
53 114 749
54 113 810
55 113 550
56 113 327
57 113 198
58 113 696
59 113 505
60 113 331
61 113 12
62 113 826
63 112 948
64 112 501
65 112 194
66 112 319
67 112 414
68 111 204
69 111 307
70 111 573
71 111 305
72 111 493
73 111 406
74 111 832
75 111 152
76 111 129
77 111 827
78 110 61
79 110 577
80 110 791
81 110 627
82 110 554
83 110 374
84 110 635
85 110 275
86 110 476
87 109 941
88 109 246
89 109 41
90 109 833
91 109 104
92 108 357
93 108 547
94 108 106
95 108 347
96 108 150
97 108 325
98 108 924
99 107 131
100 107 576
101 107 464
102 107 263
103 107 497
104 107 404
105 107 4
106 107 693
107 107 188
108 107 231
109 106 748
110 106 536
111 106 517
112 106 653
113 106 437
114 106 984
115 106 478
116 106 921
117 106 243
118 105 776
119 105 33
120 105 171
121 105 68
122 105 124
123 105 440
124 105 674
125 105 297
126 104 738
127 104 951
128 104 402
129 104 592
130 104 611
131 104 511
132 104 451
133 104 218
134 104 108
135 104 50
136 104 154
137 104 967
138 104 841
139 103 422
140 103 397
141 103 871
142 103 152
143 103 759
144 103 846
145 102 846
146 102 178
147 102 660
148 102 885
149 102 4
150 102 708
151 102 569
152 102 863
153 102 534
154 101 918
155 101 229
156 101 598
157 101 541
158 101 156
159 101 111
160 101 540
161 101 211
162 101 746
163 101 578
164 100 404
165 100 395
166 100 900
167 100 47
168 100 117
169 99 102
170 99 78
171 99 218
172 99 870
173 98 117
174 98 784
175 98 117
176 98 122
177 98 560
178 98 53
179 98 426
180 98 715
181 98 111
182 97 569
183 97 550
184 97 841
185 97 443
186 97 297
187 97 993
188 97 740
189 97 388
190 96 703
191 96 504
192 96 974
193 96 770
194 96 342
195 96 955
196 95 986
197 95 26
198 95 749
199 95 51
200 95 306
201 95 759
202 95 552
203 95 835
204 94 170
205 94 605
206 94 741
207 94 482
208 94 445
209 94 761
210 94 714
211 94 618
212 94 986
213 93 677
214 93 496
215 93 16
216 93 301
217 93 0
218 92 107
219 92 907
220 92 452
221 92 510
222 92 406
223 91 160
224 91 50
225 91 443
226 91 121
227 91 81
228 91 966
229 91 262
230 91 142
231 91 411
232 91 532
233 90 904
234 90 134
235 90 892
236 90 840
237 90 575
238 90 754
239 90 405
240 90 779
241 90 13
242 90 368
243 90 301
244 90 229
245 90 697
246 89 115
247 89 745
248 89 352
249 89 385
250 89 698
251 89 871
252 89 724
253 88 35
254 88 677
255 88 531
256 88 341
257 88 540
258 88 727
259 88 648
260 88 383
261 88 980
262 88 468
263 88 784
264 87 236
265 87 206
266 87 292
267 87 932
268 87 795
269 87 117
270 87 866
271 87 1000
272 87 327
273 86 596
274 86 413
275 86 770
276 86 302
277 86 181
278 86 406
279 85 282
280 85 671
281 85 137
282 85 39
283 85 529
284 85 650
285 85 102
286 85 216
287 85 267
288 85 189
289 85 709
290 85 347
291 85 924
292 85 797
293 85 343
294 85 86
295 84 906
296 84 654
297 84 658
298 84 198
299 84 833
300 84 70
301 84 148
302 84 792
303 83 146
304 83 184
305 83 370
306 83 626
307 83 538
308 83 142
309 83 801
310 83 379
311 83 625
312 83 245
313 82 906
314 82 632
315 82 19
316 82 85
317 81 912
318 81 956
319 81 205
320 81 576
321 80 224
322 80 993
323 80 484
324 80 386
325 80 120
326 80 25
327 80 596
328 79 715
329 79 917
330 79 872
331 79 245
332 79 129
333 79 636
334 79 584
335 79 692
336 79 976
337 78 660
338 78 6
339 78 414
340 78 873
341 78 954
342 77 873
343 77 15
344 77 235
345 77 898
346 77 413
347 77 516
348 77 62
349 77 686
350 77 681
351 77 900
352 77 845
353 77 821
354 77 186
355 77 385
356 77 59
357 76 525
358 76 791
359 76 569
360 76 888
361 76 117
362 76 141
363 76 947
364 76 484
365 75 239
366 75 70
367 75 452
368 75 214
369 74 726
370 74 188
371 74 710
372 74 578
373 74 122
374 74 395
375 74 385
376 74 34
377 73 477
378 73 45
379 73 273
380 73 740
381 73 869
382 73 350
383 73 322
384 73 502
385 72 310
386 72 286
387 72 221
388 72 386
389 72 575
390 72 732
391 72 443
392 72 930
393 72 656
394 72 268
395 72 209
396 72 877
397 72 396
398 72 646
399 72 708
400 71 0
401 71 644
402 71 323
403 71 750
404 71 973
405 71 536
406 71 465
407 71 676
408 71 498
409 70 292
410 70 480
411 70 754
412 70 298
413 70 580
414 70 11
415 70 252
416 69 305
417 69 163
418 69 313
419 69 811
420 69 808
421 69 516
422 69 932
423 69 706
424 68 248
425 68 490
426 68 294
427 68 726
428 68 280
429 68 497
430 68 627
431 68 653
432 68 239
433 68 748
434 67 657
435 67 918
436 67 433
437 67 916
438 67 834
439 67 827
440 67 883
441 66 144
442 66 234
443 66 957
444 66 353
445 66 550
446 66 259
447 66 989
448 66 220
449 66 316
450 66 54
451 66 645
452 66 503
453 66 195
454 66 506
455 65 95
456 65 892
457 65 689
458 65 372
459 65 262
460 65 144
461 65 588
462 64 655
463 64 819
464 64 537
465 64 541
466 64 471
467 64 193
468 64 446
469 63 186
470 63 830
471 63 469
472 63 687
473 63 784
474 63 734
475 63 784
476 63 70
477 62 79
478 62 720
479 62 154
480 62 824
481 62 66
482 62 930
483 62 431
484 61 329
485 61 678
486 61 514
487 61 631
488 60 988
489 60 86
490 60 556
491 60 723
492 60 621
493 60 126
494 60 555
495 60 914
496 59 798
497 59 182
498 59 819
499 59 567
500 59 349
501 59 169
502 59 455
503 58 341
504 58 622
505 58 670
506 58 245
507 58 477
508 58 960
509 58 956
510 58 959
511 57 244
512 57 939
513 57 926
514 57 76
515 57 439
516 57 666
517 57 139
518 56 674
519 56 723
520 56 316
521 56 449
522 56 448
523 56 567
524 56 781
525 55 322
526 55 187
527 55 125
528 55 190
529 55 893
530 55 946
531 55 852
532 55 571
533 55 833
534 55 507
535 55 473
536 55 400
537 55 751
538 55 735
539 55 650
540 55 18
541 54 110
542 54 808
543 54 48
544 54 971
545 54 509
546 54 51
547 54 306
548 54 663
549 54 782
550 54 193
551 53 661
552 53 259
553 53 661
554 53 683
555 53 707
556 53 35
557 53 785
558 53 760
559 53 321
560 53 849
561 53 195
562 52 210
563 52 212
564 52 319
565 52 738
566 52 336
567 52 450
568 52 610
569 52 845
570 52 213
571 51 872
572 51 981
573 50 360
574 50 841
575 50 573
576 50 906
577 50 164
578 50 713
579 50 5
580 50 787
581 50 767
582 50 450
583 50 6
584 50 756
585 49 457
586 49 959
587 49 177
588 49 222
589 49 99
590 48 607
591 48 119
592 48 372
593 48 860
594 48 49
595 48 489
596 48 484
597 48 758
598 48 812
599 47 657
600 47 730
601 47 433
602 47 404
603 47 488
604 47 113
605 47 38
606 47 768
607 47 871
608 47 691
609 47 430
610 47 649
611 47 950
612 46 875
613 46 748
614 46 807
615 46 864
616 46 111
617 45 218
618 45 180
619 45 838
620 45 187
621 44 746
622 44 18
623 44 451
624 44 631
625 44 299
626 44 195
627 44 155
628 43 278
629 43 996
630 43 36
631 43 81
632 43 989
633 43 610
634 43 871
635 43 210
636 43 888
637 43 599
638 43 267
639 43 635
640 43 621
641 43 413
642 43 404
643 42 206
644 42 309
645 42 473
646 42 845
647 42 692
648 42 365
649 42 863
650 42 453
651 41 603
652 41 432
653 41 577
654 41 299
655 40 539
656 40 275
657 40 244
658 40 968
659 40 529
660 40 379
661 40 676
662 40 334
663 40 485
664 40 177
665 39 420
666 39 417
667 39 18
668 39 469
669 38 168
670 38 767
671 38 219
672 38 598
673 38 538
674 38 479
675 38 39
676 38 510
677 38 43
678 38 394
679 38 910
680 37 398
681 37 863
682 37 908
683 37 736
684 37 908
685 37 20
686 37 294
687 37 920
688 37 432
689 37 635
690 36 567
691 36 740
692 36 420
693 36 76
694 36 847
695 36 45
696 36 686
697 36 976
698 36 948
699 36 212
700 36 264
701 36 799
702 36 918
703 36 488
704 35 961
705 35 970
706 34 511
707 34 903
708 34 755
709 34 592
710 34 397
711 34 355
712 34 749
713 33 330
714 33 408
715 33 154
716 33 862
717 33 730
718 33 727
719 32 464
720 32 563
721 32 850
722 32 378
723 32 307
724 32 609
725 32 96
726 32 666
727 32 381
728 32 850
729 32 161
730 32 905
731 31 370
732 31 962
733 31 876
734 31 4
735 31 395
736 31 415
737 31 386
738 31 81
739 31 614
740 30 332
741 30 607
742 30 362
743 30 573
744 30 400
745 30 884
746 30 594
747 30 150
748 30 599
749 30 818
750 30 371
